(declare-fun temp1182_1 () (_ BitVec 64))
(declare-fun var461925 () (_ BitVec 64))
(declare-fun temp1182_2 () (_ BitVec 64))
(declare-fun var724069 () (_ BitVec 64))
(declare-fun temp1182_3 () (_ BitVec 64))
(declare-fun temp1182_4 () (_ BitVec 64))
(declare-fun var69380 () (_ BitVec 64))
(declare-fun k!0 () Bool)
(declare-fun ARGNAME_rtol_NAMEEND () (_ BitVec 64))
(declare-fun temp1182_5 () (_ BitVec 64))
(declare-fun ARGNAME_atol_NAMEEND () (_ BitVec 64))
(declare-fun var69401 () (_ BitVec 64))
(declare-fun temp1182_6 () (_ BitVec 64))
(declare-fun temp1182_7 () (_ BitVec 64))
(declare-fun temp1182_8 () (_ BitVec 64))
(declare-fun ARGNAME_input_NAMEEND_DIMSIZE
             ()
             (Array (_ BitVec 64) (_ BitVec 64)))
(declare-fun temp1182_9 () (_ BitVec 64))
(declare-fun temp1182_10 () (_ BitVec 64))
(declare-fun temp1182_11 () (_ BitVec 64))
(declare-fun temp1182_12 () (_ BitVec 64))
(declare-fun temp1182_13 () (_ BitVec 64))
(declare-fun temp1182_14 () (_ BitVec 64))
(declare-fun temp1182_15 () (_ BitVec 64))
(declare-fun temp1182_16 () (_ BitVec 64))
(declare-fun temp1182_17 () (_ BitVec 64))
(declare-fun temp1182_18 () (_ BitVec 64))
(declare-fun temp1182_19 () (_ BitVec 64))
(declare-fun temp1182_20 () (_ BitVec 64))
(declare-fun temp1182_21 () (_ BitVec 64))
(declare-fun temp1182_22 () (_ BitVec 64))
(declare-fun temp1182_23 () (_ BitVec 64))
(declare-fun temp1182_24 () (_ BitVec 64))
(declare-fun temp1182_25 () (_ BitVec 64))
(declare-fun temp1182_26 () (_ BitVec 64))
(declare-fun ARGNAME_other_NAMEEND_DIMSIZE
             ()
             (Array (_ BitVec 64) (_ BitVec 64)))
(declare-fun temp1182_27 () (_ BitVec 64))
(declare-fun temp1182_28 () (_ BitVec 64))
(declare-fun temp1182_29 () (_ BitVec 64))
(declare-fun temp1182_30 () (_ BitVec 64))
(declare-fun temp1182_31 () (_ BitVec 64))
(declare-fun temp1182_32 () (_ BitVec 64))
(declare-fun temp1182_33 () (_ BitVec 64))
(declare-fun temp1182_34 () (_ BitVec 64))
(declare-fun temp1182_35 () (_ BitVec 64))
(declare-fun temp1182_36 () (_ BitVec 64))
(declare-fun temp1182_37 () (_ BitVec 64))
(declare-fun temp1182_38 () (_ BitVec 64))
(declare-fun temp1182_39 () (_ BitVec 64))
(declare-fun temp1182_40 () (_ BitVec 64))
(declare-fun temp1182_41 () (_ BitVec 64))
(declare-fun temp1182_42 () (_ BitVec 64))
(declare-fun temp1182_43 () (_ BitVec 64))
(declare-fun temp1182_44 () (_ BitVec 64))
(declare-fun temp1182_45 () (_ BitVec 64))
(declare-fun temp1182_46 () (_ BitVec 64))
(declare-fun temp1182_47 () (_ BitVec 64))
(declare-fun temp1182_48 () (_ BitVec 64))
(declare-fun temp1182_49 () (_ BitVec 64))
(declare-fun temp1182_50 () (_ BitVec 64))
(declare-fun temp1182_51 () (_ BitVec 64))
(declare-fun temp1182_52 () (_ BitVec 64))
(declare-fun temp1182_53 () (_ BitVec 64))
(declare-fun temp1182_54 () (_ BitVec 64))
(declare-fun temp1182_55 () (_ BitVec 64))
(declare-fun temp1182_56 () (_ BitVec 64))
(declare-fun temp1182_57 () (_ BitVec 64))
(declare-fun temp1182_58 () (_ BitVec 64))
(declare-fun temp1182_59 () (_ BitVec 64))
(declare-fun temp1182_60 () (_ BitVec 64))
(declare-fun temp1182_61 () (_ BitVec 64))
(declare-fun temp1182_62 () (_ BitVec 64))
(declare-fun temp1182_63 () (_ BitVec 64))
(declare-fun temp1182_64 () (_ BitVec 64))
(declare-fun temp1182_65 () (_ BitVec 64))
(declare-fun temp1182_66 () (_ BitVec 64))
(declare-fun temp1182_67 () (_ BitVec 64))
(declare-fun temp1182_68 () (_ BitVec 64))
(declare-fun temp1182_69 () (_ BitVec 64))
(declare-fun temp1182_70 () (_ BitVec 64))
(declare-fun temp1182_71 () (_ BitVec 64))
(declare-fun temp1182_72 () (_ BitVec 64))
(declare-fun temp1182_73 () (_ BitVec 64))
(declare-fun temp1182_74 () (_ BitVec 64))
(declare-fun temp1182_75 () (_ BitVec 64))
(declare-fun temp1182_76 () (_ BitVec 64))
(declare-fun temp1182_77 () (_ BitVec 64))
(declare-fun temp1182_78 () (_ BitVec 64))
(declare-fun ARGNAME_other_NAMEEND_DIM () (_ BitVec 64))
(declare-fun temp1182_79 () (_ BitVec 64))
(declare-fun ARGNAME_equal_nan_NAMEEND () (_ BitVec 64))
(declare-fun temp1182_80 () (_ BitVec 64))
(declare-fun var69543 () (_ BitVec 64))
(declare-fun temp1182_81 () (_ BitVec 64))
(declare-fun var69545 () (_ BitVec 64))
(declare-fun var69546 () (_ BitVec 64))
(declare-fun temp1182_82 () (_ BitVec 64))
(declare-fun temp1182_83 () (_ BitVec 64))
(declare-fun var1249582 () (_ BitVec 64))
(declare-fun temp1182_84 () (_ BitVec 64))
(declare-fun var1249583 () (_ BitVec 64))
(declare-fun var1574014 () (_ BitVec 64))
(declare-fun var1574015 () (_ BitVec 64))
(declare-fun temp1182_85 () (_ BitVec 64))
(declare-fun var2101658 () (_ BitVec 64))
(declare-fun temp1182_86 () (_ BitVec 64))
(declare-fun var2625946 () (_ BitVec 64))
(declare-fun temp1182_87 () (_ BitVec 64))
(declare-fun var3543971 () (_ BitVec 64))
(declare-fun temp1182_89 () (_ BitVec 64))
(declare-fun temp1182_88 () (_ BitVec 64))
(assert (= temp1182_1 #x0000000000080000))
(assert (= var461925 temp1182_1))
(assert (= temp1182_2 #x0000000000080000))
(assert (= var724069 temp1182_2))
(assert (= temp1182_3 #x0000000000000000))
(assert (= var69380
   (ite (bvslt ARGNAME_rtol_NAMEEND temp1182_3)
        #x0000000000000001
        #x0000000000000000)))
(assert (= temp1182_4 #x0000000000000000))
(assert (= var69380 temp1182_4))
(assert (= temp1182_5 #x0000000000000000))
(assert (= var69401
   (ite (bvslt ARGNAME_atol_NAMEEND temp1182_5)
        #x0000000000000001
        #x0000000000000000)))
(assert (= temp1182_6 #x0000000000000000))
(assert (= var69401 temp1182_6))
(assert (= temp1182_7 #x0000000000000000))
(assert (= temp1182_8 temp1182_7))
(assert (= temp1182_9 (select ARGNAME_input_NAMEEND_DIMSIZE temp1182_8)))
(assert (= temp1182_10 #x0000000000000001))
(assert (= temp1182_11 temp1182_10))
(assert (= temp1182_12 (select ARGNAME_input_NAMEEND_DIMSIZE temp1182_11)))
(assert (= temp1182_13 #x0000000000000002))
(assert (= temp1182_14 temp1182_13))
(assert (= temp1182_15 (select ARGNAME_input_NAMEEND_DIMSIZE temp1182_14)))
(assert (= temp1182_16 #x0000000000000003))
(assert (= temp1182_17 temp1182_16))
(assert (= temp1182_18 (select ARGNAME_input_NAMEEND_DIMSIZE temp1182_17)))
(assert (= temp1182_19 #x0000000000000004))
(assert (= temp1182_20 temp1182_19))
(assert (= temp1182_21 (select ARGNAME_input_NAMEEND_DIMSIZE temp1182_20)))
(assert (= temp1182_22 #x0000000000000005))
(assert (= temp1182_23 temp1182_22))
(assert (= temp1182_24 (select ARGNAME_input_NAMEEND_DIMSIZE temp1182_23)))
(assert (= temp1182_25 #x0000000000000000))
(assert (= temp1182_26 temp1182_25))
(assert (= temp1182_27 (select ARGNAME_other_NAMEEND_DIMSIZE temp1182_26)))
(assert (= temp1182_28 #x0000000000000001))
(assert (= temp1182_29 temp1182_28))
(assert (= temp1182_30 (select ARGNAME_other_NAMEEND_DIMSIZE temp1182_29)))
(assert (= temp1182_31 #x0000000000000002))
(assert (= temp1182_32 temp1182_31))
(assert (= temp1182_33 (select ARGNAME_other_NAMEEND_DIMSIZE temp1182_32)))
(assert (= temp1182_34 #x0000000000000003))
(assert (= temp1182_35 temp1182_34))
(assert (= temp1182_36 (select ARGNAME_other_NAMEEND_DIMSIZE temp1182_35)))
(assert (= temp1182_37 #x0000000000000004))
(assert (= temp1182_38 temp1182_37))
(assert (= temp1182_39 (select ARGNAME_other_NAMEEND_DIMSIZE temp1182_38)))
(assert (= temp1182_40 #x0000000000000005))
(assert (= temp1182_41 temp1182_40))
(assert (= temp1182_42 (select ARGNAME_other_NAMEEND_DIMSIZE temp1182_41)))
(assert (= temp1182_43 temp1182_11))
(assert (= temp1182_44 (select ARGNAME_other_NAMEEND_DIMSIZE temp1182_43)))
(assert (= temp1182_45 temp1182_14))
(assert (= temp1182_46 (select ARGNAME_other_NAMEEND_DIMSIZE temp1182_45)))
(assert (= temp1182_47 temp1182_17))
(assert (= temp1182_48 (select ARGNAME_other_NAMEEND_DIMSIZE temp1182_47)))
(assert (= temp1182_49 temp1182_20))
(assert (= temp1182_50 (select ARGNAME_other_NAMEEND_DIMSIZE temp1182_49)))
(assert (= temp1182_51 temp1182_23))
(assert (= temp1182_52 (select ARGNAME_other_NAMEEND_DIMSIZE temp1182_51)))
(assert (= temp1182_53 temp1182_8))
(assert (= temp1182_54 (select ARGNAME_other_NAMEEND_DIMSIZE temp1182_53)))
(assert (= temp1182_55 temp1182_26))
(assert (= temp1182_56 (select ARGNAME_input_NAMEEND_DIMSIZE temp1182_55)))
(assert (= temp1182_57 temp1182_29))
(assert (= temp1182_58 (select ARGNAME_input_NAMEEND_DIMSIZE temp1182_57)))
(assert (= temp1182_59 temp1182_32))
(assert (= temp1182_60 (select ARGNAME_input_NAMEEND_DIMSIZE temp1182_59)))
(assert (= temp1182_61 temp1182_35))
(assert (= temp1182_62 (select ARGNAME_input_NAMEEND_DIMSIZE temp1182_61)))
(assert (= temp1182_63 temp1182_38))
(assert (= temp1182_64 (select ARGNAME_input_NAMEEND_DIMSIZE temp1182_63)))
(assert (= temp1182_65 temp1182_41))
(assert (= temp1182_66 (select ARGNAME_input_NAMEEND_DIMSIZE temp1182_65)))
(assert (= temp1182_67 temp1182_43))
(assert (= temp1182_68 (select ARGNAME_input_NAMEEND_DIMSIZE temp1182_67)))
(assert (= temp1182_69 temp1182_45))
(assert (= temp1182_70 (select ARGNAME_input_NAMEEND_DIMSIZE temp1182_69)))
(assert (= temp1182_71 temp1182_47))
(assert (= temp1182_72 (select ARGNAME_input_NAMEEND_DIMSIZE temp1182_71)))
(assert (= temp1182_73 temp1182_49))
(assert (= temp1182_74 (select ARGNAME_input_NAMEEND_DIMSIZE temp1182_73)))
(assert (= temp1182_75 temp1182_51))
(assert (= temp1182_76 (select ARGNAME_input_NAMEEND_DIMSIZE temp1182_75)))
(assert (= temp1182_77 temp1182_53))
(assert (= temp1182_78 (select ARGNAME_input_NAMEEND_DIMSIZE temp1182_77)))
(assert (= (and true
        (= temp1182_44 temp1182_12)
        (= temp1182_46 temp1182_15)
        (= temp1182_48 temp1182_18)
        (= temp1182_50 temp1182_21)
        (= temp1182_52 temp1182_24)
        (= temp1182_54 temp1182_9)
        (= temp1182_56 temp1182_27)
        (= temp1182_58 temp1182_30)
        (= temp1182_60 temp1182_33)
        (= temp1182_62 temp1182_36)
        (= temp1182_64 temp1182_39)
        (= temp1182_66 temp1182_42)
        (= temp1182_68 temp1182_44)
        (= temp1182_70 temp1182_46)
        (= temp1182_72 temp1182_48)
        (= temp1182_74 temp1182_50)
        (= temp1182_76 temp1182_52)
        (= temp1182_78 temp1182_54))
   true))
(assert (= ARGNAME_other_NAMEEND_DIM ARGNAME_other_NAMEEND_DIM))
(assert (= temp1182_79 #x0000000000000000))
(assert (= ARGNAME_equal_nan_NAMEEND temp1182_79))
(assert (= temp1182_80 #x0000000000000000))
(assert (= var69543
   (ite (= ARGNAME_rtol_NAMEEND temp1182_80)
        #x0000000000000001
        #x0000000000000000)))
(assert (= temp1182_81 #x0000000000000000))
(assert (= var69545
   (ite (= ARGNAME_atol_NAMEEND temp1182_81)
        #x0000000000000001
        #x0000000000000000)))
(assert (= var69546 (bvand var69543 var69545)))
(assert (= temp1182_82 #x0000000000000000))
(assert (= var69546 temp1182_82))
(assert (= temp1182_83 #x0000000000000000))
(assert (= var1249582 temp1182_83))
(assert (= temp1182_84 #x0000000000000000))
(assert (= var1249583 temp1182_84))
(assert (= var1574014 var1249582))
(assert (= var1574015 var1249583))
(assert (= temp1182_85 #x0000000000000001))
(assert (= var2101658 temp1182_85))
(assert (= temp1182_86 #x0000000000000001))
(assert (= var2625946 temp1182_86))
(assert (= temp1182_87 #x000000000000000b))
(assert (= var3543971 temp1182_87))
(assert (= temp1182_89 #x0000000000000001))
(assert (= temp1182_88 temp1182_89))
(model-add temp1182_1 () (_ BitVec 64) #x0000000000080000)
(model-add var461925 () (_ BitVec 64) #x0000000000080000)
(model-add temp1182_2 () (_ BitVec 64) #x0000000000080000)
(model-add var724069 () (_ BitVec 64) #x0000000000080000)
(model-add temp1182_3 () (_ BitVec 64) #x0000000000000000)
(model-add temp1182_4 () (_ BitVec 64) #x0000000000000000)
(model-add var69380 () (_ BitVec 64) #x0000000000000000)
(model-del k!0)
(model-add ARGNAME_rtol_NAMEEND
           ()
           (_ BitVec 64)
           (ite (or k!0 (= #x0000000000000000 #x8000000000000000))
                #x0000000000000000
                (bvsub #x0000000000000000 #x0000000000000001)))






